CMD:
./solvers/bin/cadical --plain --no-reduce -t 1600 ./data/cnfs//boblivea/boblivea.32.cnf

c --- [ banner ] -------------------------------------------------------------
c 
c CaDiCaL SAT Solver
c Copyright (c) 2016-2024
c A. Biere, M. Fleury, N. Froleyks, K. Fazekas, F. Pollitt, T. Faller
c JKU Linz, University of Freiburg, TU Wien
c 
c Version 2.1.3 5296d3d2a9bf48c154ab2acb5e44625776d821bf
c g++ (Gentoo 12.3.1_p20230526 p2) 12.3.1 20230526 -Wall -Wextra -O3 -DNDEBUG
c Sat Aug 9 07:26:21 PDT 2025 Linux cedar2.int.cedar.computecanada.ca 5.14.0-362.24.2.el9_3.x86_64 x86_64
c 
c --- [ limit ] --------------------------------------------------------------
c 
c setting time limit to 1600 seconds real time (due to '-t 1600')
c 
c --- [ parsing input ] ------------------------------------------------------
c 
c reading DIMACS file from './data/cnfs//boblivea/boblivea.32.cnf'
c opening file to read './data/cnfs//boblivea/boblivea.32.cnf'
c found 'p cnf 18153 53661' header
c parsed 53661 clauses in 0.01 seconds process time
c 
c --- [ options ] ------------------------------------------------------------
c 
c   --compact=false                (different from default 'true')
c   --decompose=false              (different from default 'true')
c   --deduplicate=false            (different from default 'true')
c   --elim=false                   (different from default 'true')
c   --probe=false                  (different from default 'true')
c   --reduce=false                 (different from default 'true')
c   --subsume=false                (different from default 'true')
c   --ternary=false                (different from default 'true')
c   --transred=false               (different from default 'true')
c   --vivify=false                 (different from default 'true')
c 
c --- [ solving ] ------------------------------------------------------------
c 
c time measured in process time since initialization
c 
c  seconds  reductions  redundant  irredundant
c         MB    restarts       trail      variables
c          level   conflicts       glue        remaining
c 
c *  0.01 12  0 0   0    0    0  0% 0 50589 16339 90%
c {  0.01 12  0 0   0    0    0  0% 0 50589 16339 90%
c i  0.02 12 23 0   0   16   15 31% 3 50589 16334 90%
c i  0.02 12 27 0   1   20   18 32% 3 50589 16317 90%
c i  0.02 12 29 0   1   21   18 32% 3 50589 15663 86%
c i  0.06 13 30 0  71  804  578 48% 7 50589 14541 80%
c }  0.07 13 30 0  82 1000  730 48% 6 50589 14541 80%
c [  0.07 13  0 0  82 1000  730  0% 0 50589 14541 80%
c O  0.07 13 18 0  82 1002  732 40% 2 50589 14541 80%
c ]  0.15 13 40 0  83 3000 2575 74% 9 50589 14541 80%
c {  0.15 13 30 0  83 3000 2575 48% 6 50589 14541 80%
c F  0.15 13 30 0  83 3003 2578 48% 6 50589 14541 80%
c i  0.18 13 31 0  98 3674 3167 55% 6 50589 14538 80%
c i  0.18 13 30 0  98 3762 3253 56% 6 50589 14534 80%
c i  0.19 13 30 0  98 3852 3333 57% 6 50589 14527 80%
c i  0.19 13 29 0  98 3897 3375 57% 6 50589 14517 80%
c i  0.20 13 28 0  98 4020 3463 57% 5 50589 13758 76%
c #  0.27 14 31 0 177 6004 5291 55% 5 50589 13758 76%
c }  0.32 14 30 0 247 7002 6189 54% 5 50589 13758 76%
c [  0.32 14 40 0 247 7002 6189 74% 9 50589 13758 76%
c 
c  seconds  reductions  redundant  irredundant
c         MB    restarts       trail      variables
c          level   conflicts       glue        remaining
c 
c i  0.36 14 45 0 248 7607 6745 74% 9 50589 13757 76%
c i  0.47 14 48 0 248 9062 8097 76% 9 50589 13756 76%
c I  0.53 15 48 0 249 10007 8918 73% 10 50589 13756 76%
c ]  0.87 16 39 0 252 15002 13224 72% 11 50589 13756 76%
c {  0.87 16 30 0 252 15002 13224 54% 5 50589 13756 76%
c B  0.88 16 30 0 254 15008 13230 54% 5 50589 13756 76%
c i  0.94 16 29 0 365 15834 13980 54% 5 50589 13751 76%
c i  1.14 17 30 0 680 19128 16963 54% 6 50589 13711 76%
c i  1.15 17 30 0 688 19190 17019 55% 6 50589 13665 75%
c i  1.15 17 30 0 698 19282 17103 54% 6 50589 13651 75%
c i  1.16 17 30 0 702 19391 17206 54% 6 50589 13649 75%
c i  1.17 17 30 0 720 19555 17350 55% 6 50589 13648 75%
c i  1.19 17 30 0 739 19796 17573 55% 6 50589 13644 75%
c W  1.29 18 28 0 842 21009 17865 56% 6 38662 13644 75%
c i  1.35 18 28 0 928 21607 18385 56% 6 38662 13637 75%
c i  1.35 18 28 0 928 21619 18390 56% 6 38662 13344 74%
c i  1.37 18 27 0 928 21858 18601 56% 6 38662 13253 73%
c i  1.39 18 27 0 950 22170 18866 56% 6 38662 13214 73%
c i  1.41 18 27 0 956 22877 19523 57% 6 38662 13192 73%
c i  1.42 18 27 0 956 23000 19637 57% 6 38662 13151 72%
c 
c  seconds  reductions    redundant  irredundant
c         MB    restarts         trail      variables
c          level    conflicts        glue        remaining
c 
c i  1.43 18 27 0 961 23123 19748 57% 6 38662 13123 72%
c i  1.44 18 27 0 966 23246 19835 57% 6 38662 13108 72%
c i  1.45 18 27 0 979 23384 19957 57% 6 38662 13107 72%
c i  1.46 18 27 0 980 23443 20001 57% 6 38662 13076 72%
c i  1.47 18 27 0 990 23626 20176 57% 6 38662 13061 72%
c i  1.47 18 27 0 993 23715 20254 57% 6 38662 13059 72%
c i  1.50 18 26 0 1000 24040 20549 57% 6 38662 13031 72%
c i  1.50 18 26 0 1017 24101 20600 57% 6 38662 13010 72%
c i  1.50 18 26 0 1019 24114 20609 57% 6 38662 12869 71%
c i  1.52 18 26 0 1030 24458 20900 57% 6 38662 12852 71%
c i  1.52 18 26 0 1030 24478 20915 57% 6 38662 12846 71%
c i  1.55 18 25 0 1043 24983 21331 57% 6 38662 12831 71%
c i  1.55 18 25 0 1043 24988 21333 57% 6 38662 12785 70%
c i  1.56 18 25 0 1051 25099 21433 57% 6 38662 12778 70%
c i  1.56 18 25 0 1051 25109 21437 57% 6 38662 12736 70%
c i  1.57 18 25 0 1057 25208 21522 57% 6 38662 12728 70%
c i  1.62 18 25 0 1079 25818 22053 58% 6 38662 12718 70%
c i  1.62 18 25 0 1079 25846 22073 58% 6 38662 12670 70%
c i  1.62 18 25 0 1079 25874 22095 57% 5 38662 12658 70%
c }  1.62 18 25 0 1079 25878 22095 57% 5 38662 10421 57%
c 
c  seconds  reductions     redundant  irredundant
c         MB    restarts          trail      variables
c          level     conflicts        glue        remaining
c 
c 0  1.62 18 25 0 1079 25878 22095 57% 5 38662 10421 57%
c 
c --- [ result ] -------------------------------------------------------------
c 
s UNSATISFIABLE
c 
c --- [ run-time profiling ] -------------------------------------------------
c 
c process time taken by individual solving procedures
c (percentage relative to process time for solving)
c 
c         1.61   99.99% search
c         0.96   59.64% unstable
c         0.63   39.09% stable
c         0.02    0.96% walk
c         0.01    0.56% parse
c         0.00    0.30% lucky
c         0.00    0.00% simplify
c   =================================
c         1.61   99.41% solve
c 
c last line shows process time for solving
c (percentage relative to total process time)
c 
c --- [ statistics ] ---------------------------------------------------------
c 
c chronological:              6761        26.13 %  of conflicts
c conflicts:                 25878     16048.49    per second
c decisions:                 57494     35655.46    per second
c fixed:                      7732        42.59 %  of all variables
c learned:                   24862        96.07 %  per conflict
c learned_lits:             821657       100.00 %  learned literals
c minimized:                     0         0.00 %  learned literals
c shrunken:                 172014        20.94 %  learned literals
c minishrunken:             160897        19.58 %  learned literals
c otfs:                        145         0.56 %  of conflict
c propagations:           24897054        15.44 M  per second
c rephased:                      6      4313.00    interval
c restarts:                   1079        23.98    interval
c stabilizing:                   2        38.63 %  of conflicts
c subsumed:                   1932         2.56 %  of all clauses
c strengthened:                140         0.19 %  of all clauses
c walked:                        1     25878.00    interval
c 
c seconds are measured in process time for solving
c 
c --- [ resources ] ----------------------------------------------------------
c 
c total process time since initialization:         1.62    seconds
c total real time since initialization:            1.64    seconds
c maximum resident set size of process:           28.24    MB
c 
c --- [ shutting down ] ------------------------------------------------------
c 
c exit 20
